\ Equation counts
\     Total        E        G        L        N        X        C        B
\        44        8       14       22        0        0        0        0
\ 
\ Variable counts
\                  x        b        i      s1s      s2s       sc       si
\     Total     cont   binary  integer     sos1     sos2    scont     sint
\        35       21       14        0        0        0        0        0
\ 
\ Nonzero counts
\     Total    const       NL      DLL
\       110      103        7        0
\ 
Minimize
 obj: - 6.435e-2 x2 - 5.48e-2 x3 - 2.505e-2 x4 - 7.62e-2 x5 - 3.815e-2 x6 - 9.27e-2 x7 - 3.1e-2 x8 + 0 x9 
  + 0 x10 + 0 x11 + 0 x12 + 0 x13 + 0 x14 + 0 x15 + 0 x16 + 0 x17 + 0 x18 + 0 x19 + 0 x20 + 0 x21 + 0 x22 
  + 0 b23 + 0 b24 + 0 b25 + 0 b26 + 0 b27 + 0 b28 + 0 b29 + 0 b30 + 0 b31 + 0 b32 + 0 b33 + 0 b34 + 0 b35 
  + 0 b36 + [ 84.36 x2^2 + 80.72 x2 * x3 + 43.52 x2 * x4 + 21.2 x2 * x5 + 49.28 x2 * x6 + 95.36 x2 * x7 
  + 69.64 x2 * x8 + 141.78 x3^2 + 86.32 x3 * x4 + 61.64 x3 * x5 + 92.96 x3 * x6 + 95.2 x3 * x7 + 50.48 x3 * x8 
  + 51.02 x4^2 + 38.4 x4 * x5 + 90.52 x4 * x6 + 52.88 x4 * x7 + 18.8 x4 * x8 + 44.66 x5^2 + 41.28 x5 * x6 
  + 41.84 x5 * x7 + 4 x5 * x8 + 60.02 x6^2 + 65.44 x6 * x7 + 28.8 x6 * x8 + 84.46 x7^2 + 39.6 x7 * x8 
  + 32.84 x8^2 ]/2

Subject To
 e1: x2 + x3 + x4 + x5 + x6 + x7 + x8 = 1
 e2: x2 - x9 + x16 = .2
 e3: x3 - x10 + x17 = .2
 e4: x4 - x11 + x18 = 0
 e5: x5 - x12 + x19 = 0
 e6: x6 - x13 + x20 = .2
 e7: x7 - x14 + x21 = .2
 e8: x8 - x15 + x22 = .2
 e9: x9 + x10 + x11 + x12 + x13 + x14 + x15 <= .3
 e10: x9 - .11 b23 <= 0
 e11: x10 - .1 b24 <= 0
 e12: x11 - 7e-2 b25 <= 0
 e13: x12 - .11 b26 <= 0
 e14: x13 - .2 b27 <= 0
 e15: x14 - .1 b28 <= 0
 e16: x15 - .1 b29 <= 0
 e17: x9 - 3e-2 b23 >= 0
 e18: x10 - 4e-2 b24 >= 0
 e19: x11 - 4e-2 b25 >= 0
 e20: x12 - 3e-2 b26 >= 0
 e21: x13 - 3e-2 b27 >= 0
 e22: x14 - 3e-2 b28 >= 0
 e23: x15 - 3e-2 b29 >= 0
 e24: x16 - .2 b30 <= 0
 e25: x17 - .15 b31 <= 0
 e26: x18 <= 0
 e27: x19 <= 0
 e28: x20 - .1 b34 <= 0
 e29: x21 - .15 b35 <= 0
 e30: x22 - .2 b36 <= 0
 e31: x16 - 2e-2 b30 >= 0
 e32: x17 - 2e-2 b31 >= 0
 e33: x18 - 4e-2 b32 >= 0
 e34: x19 - 4e-2 b33 >= 0
 e35: x20 - 4e-2 b34 >= 0
 e36: x21 - 4e-2 b35 >= 0
 e37: x22 - 4e-2 b36 >= 0
 e38: b23 + b30 <= 1
 e39: b24 + b31 <= 1
 e40: b25 + b32 <= 1
 e41: b26 + b33 <= 1
 e42: b27 + b34 <= 1
 e43: b28 + b35 <= 1
 e44: b29 + b36 <= 1

Binary
 b23 b24 b25 b26 b27 b28 b29 b30 b31 b32 b33 b34 b35 b36

End
